# Solution for model r5_t18_m7_8 Batch Number: 2
# Finished Task: 17 / 18
# Makespan: 465.0, Total Distance: 298.0, Total Time: 0.9503
# R O S F Batch
0 0 9 0.0 0.0 -1
1 1 21 0.0 0.0 -1
2 2 5 0.0 0.0 -1
3 3 12 0.0 0.0 -1
4 4 16 0.0 0.0 -1
5 2 15 74.0 102.0 0
6 1 10 358.0 382.0 1
7 3 18 245.0 276.0 0
8 4 -1 429.0 465.0 1
9 0 22 114.0 144.0 0
10 1 -1 395.0 429.0 1
11 -1 -1 -1.0 -1.0 1
12 3 7 175.0 206.0 0
13 2 -1 356.0 395.0 1
14 1 20 125.0 145.0 0
15 2 13 269.0 307.0 0
16 4 17 333.0 372.0 1
17 4 8 372.0 408.0 1
18 3 -1 276.0 307.0 0
19 0 -1 324.0 356.0 1
20 1 6 221.0 252.0 0
21 1 14 82.0 113.0 0
22 0 19 276.0 304.0 0
